Gurobi 12.0.3:   lim:time = 14400

  mip:bestbound = 1

Set parameter LogToConsole to value 1

  tech:outlev = 1

Set parameter Cuts to value 3

  cut:cuts = 3

Set parameter Presolve to value 2

  pre:solve = 2

Set parameter MIPFocus to value 2

  mip:focus = 2

Set parameter Symmetry to value 2

  mip:symmetry = 2

Set parameter InfUnbdInfo to value 1

Gurobi Optimizer version 12.0.3 build v12.0.3rc0 (win64 - Windows 11+.0 (26200.2))



CPU model: 13th Gen Intel(R) Core(TM) i7-13700K, instruction set [SSE2|AVX|AVX2]

Thread count: 16 physical cores, 24 logical processors, using up to 24 threads



Non-default parameters:

TimeLimit  14400

MIPFocus  2

Symmetry  2

Cuts  3

InfUnbdInfo  1

Presolve  2



Optimize a model with 487 rows, 1159 columns and 6711 nonzeros

Model fingerprint: 0xe9793904

Model has 2 quadratic objective terms

Model has 6 quadratic constraints

Variable types: 41 continuous, 1118 integer (0 binary)

Coefficient statistics:

  Matrix range     [1e+00, 1e+05]

  QMatrix range    [1e+00, 1e+00]

  QLMatrix range   [1e+00, 1e+01]

  Objective range  [4e+00, 1e+02]

  QObjective range [2e+00, 2e+00]

  Bounds range     [1e+00, 1e+02]

  RHS range        [1e+00, 1e+05]

  QRHS range       [1e+02, 1e+02]

Presolve removed 36 rows and 89 columns

Presolve time: 0.21s

Presolved: 1122 rows, 1732 columns, 10712 nonzeros

Variable types: 138 continuous, 1594 integer (1406 binary)

Root relaxation presolve removed 21 rows and 1 columns

Root relaxation presolved: 735 rows, 1367 columns, 15245 nonzeros





Root relaxation: objective 8.778746e+01, 179 iterations, 0.02 seconds (0.02 work units)



    Nodes    |    Current Node    |     Objective Bounds      |     Work

 Expl Unexpl |  Obj  Depth IntInf | Incumbent    BestBd   Gap | It/Node Time



     0     0   87.78746    0   46          -   87.78746      -     -    0s

H    0     0                     824.6300000   87.92448  89.3%     -    0s

     0     0  129.66721    0   55  824.63000  129.66721  84.3%     -    0s

H    0     0                     788.5500000  129.66721  83.6%     -    0s

     0     0  129.66721    0   52  788.55000  129.66721  83.6%     -    0s

     0     0  142.62976    0   84  788.55000  142.62976  81.9%     -    0s

H    0     0                     500.7400000  142.62976  71.5%     -    0s

H    0     0                     487.3200000  142.62976  70.7%     -    0s

H    0     0                     466.6700000  142.85371  69.4%     -    0s

H    0     0                     461.3500000  142.85371  69.0%     -    0s

     0     0  142.85371    0   73  461.35000  142.85371  69.0%     -    0s

     0     0  142.85371    0   84  461.35000  142.85371  69.0%     -    0s

H    0     0                     453.5000000  142.85371  68.5%     -    0s

H    0     0                     453.3200000  142.85371  68.5%     -    0s

H    0     0                     440.9500000  142.85371  67.6%     -    0s

H    0     0                     422.0800000  155.25000  63.2%     -    1s

H    0     0                     416.3100000  155.25000  62.7%     -    1s

H    0     0                     414.3100000  155.25000  62.5%     -    1s

H    0     0                     409.6700000  155.25000  62.1%     -    1s

     0     0  155.25000    0   66  409.67000  155.25000  62.1%     -    1s

H    0     0                     396.0000000  156.47200  60.5%     -    1s

     0     0  156.47200    0   65  396.00000  156.47200  60.5%     -    1s

     0     0  211.01500    0   55  396.00000  211.01500  46.7%     -    1s

     0     0  212.87000    0   51  396.00000  212.87000  46.2%     -    1s

H    0     0                     384.3400000  212.87000  44.6%     -    1s

     0     0  212.87000    0   58  384.34000  212.87000  44.6%     -    1s

     0     0  212.87000    0   58  384.34000  212.87000  44.6%     -    1s

     0     2  213.07500    0   58  384.34000  213.07500  44.6%     -    1s

H  318   290                     367.0800000  213.17296  41.9%  32.6    2s

H  322   290                     365.9500000  213.17296  41.7%  32.5    2s

H  458   386                     355.5100000  213.37720  40.0%  29.1    2s

H  584   458                     342.0900000  213.52438  37.6%  27.3    2s

H 3082  1607                     331.2600000  256.83750  22.5%  27.7    4s

H 3083  1526                     322.2600000  256.90837  20.3%  27.7    5s

  3168  1585  305.47005   22  160  322.26000  265.40500  17.6%  28.4   10s

H 3227  1582                     320.4500000  265.63614  17.1%  33.0   10s

 16590  3919  298.02397   39   30  320.45000  273.46522  14.7%  29.6   15s

 30229  6264  300.98657   38   48  320.45000  281.12940  12.3%  28.0   20s

 43512  7730     cutoff   45       320.45000  285.87546  10.8%  27.5   25s

 55077  8583  297.26881   44   56  320.45000  289.63971  9.61%  27.0   30s

 69381  8327  312.14403   39   60  320.45000  293.70667  8.35%  26.8   35s

 84546  6948     cutoff   48       320.45000  298.67137  6.80%  26.6   40s

 98103  5048  313.50667   43   19  320.45000  303.50146  5.29%  26.2   45s



Cutting planes:

  Learned: 10

  Gomory: 25

  Lift-and-project: 16

  Cover: 70

  Implied bound: 86

  Projected implied bound: 20

  Clique: 102

  MIR: 38

  Mixing: 7

  StrongCG: 6

  Flow cover: 228

  GUB cover: 9

  Inf proof: 58

  Zero half: 284

  RLT: 28

  Relax-and-lift: 65



Explored 110950 nodes (2831479 simplex iterations) in 49.99 seconds (29.40 work units)

Thread count was 24 (of 24 available processors)



Solution count 10: 320.45 320.45 322.26 ... 396



Optimal solution found (tolerance 1.00e-04)

Best objective 3.204500000000e+02, best bound 3.204500000000e+02, gap 0.0000%



AMPL MP initial flat model has 1159 variables (0 integer, 1118 binary);

Objectives: 1 quadratic; 

Constraints:  487 linear; 6 quadratic;



AMPL MP final model has 1159 variables (0 integer, 1118 binary);

Objectives: 1 quadratic; 

Constraints:  487 linear; 6 quadratic;





-----RESULTS INFO-----
running_time:  50.125
TC.best_bound:  320.45
TC:  320.44999999999993
MIP Gap (%):  1.773862345476924e-14
=== Vehicle Routes ===
Vehicle 1: 0 → 1
Vehicle 1: 1 → 2
Vehicle 1: 2 → 13
Vehicle 1: 4 → 20
Vehicle 1: 13 → 16
Vehicle 1: 16 → 4
Vehicle 2: 0 → 18
Vehicle 2: 3 → 20
Vehicle 2: 18 → 3
Vehicle 3: 0 → 20
Vehicle 4: 0 → 20

=== Full Vehicle Routes ===
Vehicle 1: 0 → 1 → 2 → 13 → 16 → 4 → 0 (91<100)
Vehicle 2: 0 → 18 → 3 → 0 (93<100)
Vehicle 3: 0 → 0 (0<100)
Vehicle 4: 0 → 0 (0<100)
Arc used by MRT line: y variables:
Customer assigment to PL: u variables:
5 13
6 16
7 16
8 18
9 18
10 18
11 16
12 18
Node is served by regular vehicle: g variables:
1
2
3
4
13
16
18
Customer assigment to Home delivery: gm variables:
1
2
3
4
Node total demands: ntd variables:
1 13 1
2 12 1
3 13 1
4 12 1
9 0 0
10 0 0
11 0 0
12 0 0
19 0 0
13 12 1
14 0 0
15 0 0
16 42 1
17 0 0
18 80 1
Customer's demand delivered to PL: l variables:
5
6
7
8
9
10
11
12
Lockers load <= capacity:
0 <= 73
12 <= 85
0 <= 81
0 <= 96
42 <= 74
0 <= 82
80 <= 96
